data/instances/vrp_files/train_24.vrp
NAME : 24
COMMENT : Generated instance No. 24
TYPE : CVRP
DIMENSION : 21
EDGE_WEIGHT_TYPE : EUC_2D
CAPACITY : 30
NODE_COORD_SECTION
 1 307 704
 2 430 248
 3 617 706
 4 167 167
 5 36 736
 6 663 474
 7 844 805
 8 585 868
 9 205 111
 10 269 57
 11 531 936
 12 39 122
 13 452 933
 14 316 507
 15 41 148
 16 986 965
 17 4 951
 18 639 867
 19 454 515
 20 488 666
 21 139 29
DEMAND_SECTION
1 0
2 10
3 7
4 8
5 2
6 5
7 1
8 7
9 8
10 6
11 5
12 6
13 2
14 1
15 7
16 7
17 10
18 10
19 2
20 2
21 1
DEPOT_SECTION
 1
 -1
EOF